Maximize

y_0 + y_1 + y_2 + y_3


Subject To

a0: x_0_0 + x_0_1 + x_0_2 + x_0_3 <= 1
a1: x_1_0 + x_1_1 + x_1_2 + x_1_3 <= 1
a2: x_2_0 + x_2_1 + x_2_2 + x_2_3 <= 1
a3: x_3_0 + x_3_1 + x_3_2 + x_3_3 <= 1
a4: x_4_0 + x_4_1 + x_4_2 + x_4_3 <= 1
a5: x_5_0 + x_5_1 + x_5_2 + x_5_3 <= 1
a6: x_6_0 + x_6_1 + x_6_2 + x_6_3 <= 1
a7: x_7_0 + x_7_1 + x_7_2 + x_7_3 <= 1
a8: x_8_0 + x_8_1 + x_8_2 + x_8_3 <= 1
a9: x_9_0 + x_9_1 + x_9_2 + x_9_3 <= 1
a10: x_10_0 + x_10_1 + x_10_2 + x_10_3 <= 1
a11: x_11_0 + x_11_1 + x_11_2 + x_11_3 <= 1
a12: x_12_0 + x_12_1 + x_12_2 + x_12_3 <= 1
a13: x_13_0 + x_13_1 + x_13_2 + x_13_3 <= 1
a14: x_14_0 + x_14_1 + x_14_2 + x_14_3 <= 1
b0: 1 x_0_0 + 2 x_1_0 + 3 x_2_0 + 3 x_6_0 + 2 x_7_0 + 1 x_8_0 + 5 x_12_0 + 6 x_13_0 + 7 x_14_0 - 10 y_0 = 0
b1: 1 x_0_1 + 4 x_3_1 + 5 x_4_1 + 3 x_6_1 + 2 x_9_1 + 3 x_10_1 + 5 x_12_1 - 9 y_1 = 0
b2: 2 x_1_2 + 4 x_3_2 + 4 x_5_2 + 2 x_7_2 + 2 x_9_2 + 4 x_11_2 + 6 x_13_2 - 8 y_2 = 0
b3: 3 x_2_3 + 5 x_4_3 + 4 x_5_3 + 1 x_8_3 + 3 x_10_3 + 4 x_11_3 + 7 x_14_3 - 7 y_3 = 0




Binary

x_0_0 x_0_1 x_0_2 x_0_3 x_1_0 x_1_1 x_1_2 x_1_3 x_2_0 x_2_1 x_2_2 x_2_3 x_3_0 x_3_1 x_3_2 x_3_3 x_4_0 x_4_1 x_4_2 x_4_3 x_5_0 x_5_1 x_5_2 x_5_3 x_6_0 x_6_1 x_6_2 x_6_3 x_7_0 x_7_1 x_7_2 x_7_3 x_8_0 x_8_1 x_8_2 x_8_3 x_9_0 x_9_1 x_9_2 x_9_3 x_10_0 x_10_1 x_10_2 x_10_3 x_11_0 x_11_1 x_11_2 x_11_3 x_12_0 x_12_1 x_12_2 x_12_3 x_13_0 x_13_1 x_13_2 x_13_3 x_14_0 x_14_1 x_14_2 x_14_3 y_0 y_1 y_2 y_3

 


End
